
--- Job first tutorial.gms Start 12/18/23 09:55:46 45.1.0 88bbff72 WEX-WEI x86 64bit/MS Windows
--- Applying:
    C:\GAMS\45\gmsprmNT.txt
--- GAMS Parameters defined
    Input "C:\Users\nourh\OneDrive\Documents\GAMS\Studio\workspace\first tutorial.gms"
    PageSize 0
    ScrDir C:\Users\nourh\OneDrive\Documents\GAMS\Studio\workspace\225a\
    SysDir C:\GAMS\45\
    LogOption 3
    ErrMsg 1
    ErrorLog 99
    IDE 1
    LstTitleLeftAligned 1
Licensee: GAMS Demo, for EULA and demo limitations see   G230930/0001CB-GEN
          https://www.gams.com/latest/docs/UG%5FLicense.html         DC0000
          C:\GAMS\45\gamslice.txt
          Demo license for demonstration and instructional purposes only
Processor information: 1 socket(s), 8 core(s), and 16 thread(s) available
GAMS 45.1.0   Copyright (C) 1987-2023 GAMS Development. All rights reserved
--- Starting compilation
--- first tutorial.gms(17) 3 Mb
--- Starting execution: elapsed 0:00:00.015
--- Generating LP model example
--- first tutorial.gms(16) 4 Mb
---   3 rows  3 columns  7 non-zeroes
--- Range statistics (absolute non-zero finite values)
--- RHS       [min, max] : [ 4.000E+00, 1.800E+01] - Zero values observed as well
--- Bound     [min, max] : [        NA,        NA] - Zero values observed as well
--- Matrix    [min, max] : [ 1.000E+00, 8.000E+00]
--- Executing CPLEX (Solvelink=2): elapsed 0:00:00.175

IBM ILOG CPLEX   45.1.0 88bbff72 Oct 14, 2023          WEI x86 64bit/MS Window

*** This solver runs with a demo license. No commercial use.
--- GMO setup time: 0.00s
--- GMO memory 0.50 Mb (peak 0.50 Mb)
--- Dictionary memory 0.00 Mb
--- Cplex 22.1.1.0 link memory 0.00 Mb (peak 0.00 Mb)
--- Starting Cplex

Version identifier: 22.1.1.0 | 2022-11-27 | 9160aff4d
CPXPARAM_Advance                                 0
CPXPARAM_Simplex_Display                         2
CPXPARAM_Threads                                 1
CPXPARAM_MIP_Display                             4
CPXPARAM_MIP_Pool_Capacity                       0
CPXPARAM_MIP_Tolerances_AbsMIPGap                0
Tried aggregator 1 time.
LP Presolve eliminated 0 rows and 1 columns.
Reduced LP has 2 rows, 2 columns, and 4 nonzeros.
Presolve time = 0.00 sec. (0.00 ticks)

Iteration      Dual Objective            In Variable           Out Variable
     1  I            0.000000                   x(b)   constraints(c) slack
     2              35.600000                   x(a)   constraints(d) slack
     3              32.000000   constraints(c) slack                   x(b)

--- LP status (1): optimal.
--- Cplex Time: 0.02sec (det. 0.00 ticks)


Optimal solution found
Objective:           32.000000

--- Reading solution for model example
--- Executing after solve: elapsed 0:00:00.570
--- first tutorial.gms(17) 4 Mb
*** Status: Normal completion
--- Job first tutorial.gms Stop 12/18/23 09:55:47 elapsed 0:00:00.570
